200
200
140
140
140
138
137
137
136
135
135
132
132
132
131
131
131
128
128
127
127
126
124
124
124
123
123
123
123
120
119
118
118
118
117
116
116
115
115
114
114
114
114
113
112
111
111
111
110
109
106
105
103
103
103
101
100
100
99
99
99
99
98
98
97
97
97
97
96
96
95
95
94
94
94
93
93
93
93
93
91
91
90
89
89
89
88
86
85
85
84
84
83
83
82
82
80
80
80
80
80
79
78
77
76
76
76
76
75
75
75
75
73
72
69
68
68
68
68
67
67
67
66
65
64
64
64
63
62
62
62
61
60
59
59
58
57
55
54
54
54
54
53
53
52
52
50
49
49
48
48
47
47
47
45
45
44
44
44
43
42
42
40
40
40
39
39
39
39
38
38
37
37
36
35
35
35
35
35
34
34
33
33
33
33
32
31
30
30
29
28
28
27
27
27
26
26
25
23
22
22
20
